Route #1: 112 59 93 85 84 125 83 60 147 
Route #2: 94 95 118 89 
Route #3: 18 114 82 48 124 46 45 5 104 99 149 26 
Route #4: 58 115 145 72 109 68 77 102 50 111 
Route #5: 146 7 123 8 17 86 141 91 37 137 73 56 139 4 80 150 28 
Route #6: 144 87 100 119 14 38 140 44 16 113 61 96 6 
Route #7: 53 40 21 74 133 110 129 78 34 135 128 90 126 63 64 107 31 
Route #8: 27 101 70 30 131 32 108 10 11 62 148 127 
Route #9: 52 106 47 36 143 49 19 88 69 134 130 54 
Route #10: 13 117 97 92 98 142 57 2 105 116 3 33 9 66 20 1 
Route #11: 42 43 15 41 22 75 23 67 39 25 55 24 29 121 12 
Route #12: 132 122 51 103 71 65 136 35 120 81 79 76 138 
cost 1472.5
